sat
(:max-memory         18.05
 :memory             17.95
 :nlsat-decisions    1
 :nlsat-propagations 7
 :nlsat-stages       4
 :num-allocs         27631
 :rlimit-count       1709
 :time               0.00
 :total-time         0.01)
